data;


param d:= 100;
param r:=5;
param p:=0.200000;
param M:=1000;
param U:=
         1         1       -1.274810e-01
         2         1       -4.685055e-02
         3         1        1.175888e+00
         4         1       -1.773282e+00
         5         1        4.255283e-01
         6         1        5.552689e-01
         7         1       -7.183587e-01
         8         1        1.464720e+00
         9         1       -8.891035e-01
        10         1        1.407938e+00
        11         1        4.205148e-01
        12         1       -1.362294e+00
        13         1       -1.355598e+00
        14         1       -8.766221e-01
        15         1       -7.511134e-01
        16         1        4.249419e-01
        17         1       -4.247013e-01
        18         1        8.655827e-02
        19         1        5.035364e-01
        20         1       -3.086223e-03
        21         1       -1.644357e+00
        22         1       -8.110110e-01
        23         1        1.310984e+00
        24         1       -7.995666e-01
        25         1       -1.030153e+00
        26         1       -2.288959e-01
        27         1        1.985093e-01
        28         1        1.900495e+00
        29         1       -6.731573e-02
        30         1       -5.080184e-01
        31         1       -3.407408e-01
        32         1       -2.842622e-01
        33         1       -1.856711e+00
        34         1        6.843274e-01
        35         1        1.205300e+00
        36         1        6.823337e-02
        37         1       -4.366882e-01
        38         1       -5.422485e-01
        39         1        5.975408e-01
        40         1       -8.462230e-02
        41         1       -1.935838e-01
        42         1        8.331990e-01
        43         1        3.796941e-01
        44         1        9.631582e-01
        45         1        2.642834e-01
        46         1        1.954651e-01
        47         1        1.390139e+00
        48         1       -1.182202e+00
        49         1        4.974556e-02
        50         1        9.118584e-02
        51         1        9.118752e-01
        52         1       -7.513896e-01
        53         1        1.245439e+00
        54         1        1.792578e-01
        55         1        1.793487e+00
        56         1        8.553179e-01
        57         1       -1.156538e+00
        58         1        1.122541e+00
        59         1        3.706774e-01
        60         1        7.608703e-01
        61         1        1.400913e+00
        62         1       -1.045613e-01
        63         1        8.908787e-02
        64         1       -3.672325e-01
        65         1        1.076832e+00
        66         1       -1.669614e+00
        67         1        3.676959e-01
        68         1        9.492097e-01
        69         1        1.113280e+00
        70         1       -9.909414e-01
        71         1       -4.575858e-01
        72         1        4.236964e-03
        73         1       -1.222599e-01
        74         1        8.095965e-02
        75         1       -3.536331e-01
        76         1       -2.584369e-01
        77         1        1.613222e+00
        78         1        1.127445e+00
        79         1        7.353574e-01
        80         1       -1.337507e-01
        81         1       -1.053300e+00
        82         1        2.842883e+00
        83         1       -6.304746e-01
        84         1        9.275431e-01
        85         1       -2.303650e-01
        86         1       -1.671399e+00
        87         1       -6.136058e-01
        88         1       -3.468272e-01
        89         1        1.052406e+00
        90         1        3.539070e+00
        91         1       -2.983374e-01
        92         1        1.080990e+00
        93         1        1.137909e+00
        94         1        1.378259e+00
        95         1        6.465672e-01
        96         1       -5.435400e-01
        97         1       -9.968258e-01
        98         1       -2.677203e-02
        99         1       -2.642583e-01
       100         1        6.872405e-01
         1         2        1.138150e+00
         2         2       -2.071049e-01
         3         2        8.217414e-01
         4         2        1.699698e+00
         5         2       -7.466944e-01
         6         2        1.161911e+00
         7         2        6.960461e-01
         8         2        1.434395e+00
         9         2        2.155971e+00
        10         2       -2.064575e-01
        11         2        7.659471e-01
        12         2        1.376756e-02
        13         2       -3.669713e-01
        14         2        2.496233e-01
        15         2       -1.399002e+00
        16         2        3.598829e-01
        17         2       -6.965885e-01
        18         2       -5.069439e-01
        19         2        1.153588e+00
        20         2        9.197496e-01
        21         2        8.783321e-01
        22         2        1.344185e+00
        23         2        1.430646e+00
        24         2       -9.201728e-01
        25         2        9.766275e-01
        26         2        1.502303e-01
        27         2        1.584636e+00
        28         2        4.518717e-01
        29         2        7.971751e-01
        30         2       -1.038174e+00
        31         2        1.471594e+00
        32         2       -3.985530e-01
        33         2       -5.819199e-01
        34         2       -2.791960e-01
        35         2        3.612314e-01
        36         2       -3.538153e-01
        37         2       -2.196144e+00
        38         2       -2.993363e-02
        39         2       -4.904177e-01
        40         2        1.836894e+00
        41         2       -2.378069e-01
        42         2        4.574798e-01
        43         2        1.289764e-01
        44         2       -1.381762e+00
        45         2        8.016038e-01
        46         2        5.123785e-01
        47         2        1.088789e+00
        48         2        1.037282e+00
        49         2       -3.850270e-01
        50         2        1.131262e-01
        51         2       -2.115281e+00
        52         2        1.450570e-01
        53         2       -1.373894e+00
        54         2       -1.020043e+00
        55         2       -5.429034e-01
        56         2        1.002531e-02
        57         2        8.627792e-01
        58         2        1.354844e+00
        59         2        4.282726e-01
        60         2        2.226179e-01
        61         2        3.923015e-01
        62         2       -1.055539e+00
        63         2        9.110577e-02
        64         2        9.059309e-01
        65         2       -6.698281e-01
        66         2        1.193235e+00
        67         2       -2.379646e-01
        68         2        1.358969e+00
        69         2        7.868998e-01
        70         2       -1.153011e-01
        71         2        5.164295e-01
        72         2       -2.579435e-01
        73         2       -2.214915e+00
        74         2       -5.618325e-01
        75         2       -3.480110e-01
        76         2        1.512544e+00
        77         2        4.658653e-03
        78         2        4.082833e-01
        79         2        1.673588e-01
        80         2       -6.599734e-01
        81         2       -1.408293e+00
        82         2        9.852114e-02
        83         2        4.212893e-01
        84         2       -7.855566e-01
        85         2       -2.817611e-01
        86         2       -3.044940e-01
        87         2        8.625701e-01
        88         2       -5.420680e-01
        89         2        3.895930e-01
        90         2        4.299242e-01
        91         2       -8.748113e-01
        92         2        1.241162e+00
        93         2       -3.744182e-01
        94         2       -1.013944e+00
        95         2        5.977574e-01
        96         2        9.470443e-01
        97         2       -1.310673e+00
        98         2       -6.042573e-01
        99         2        1.152120e+00
       100         2       -8.946589e-01
         1         3        1.947402e+00
         2         3        1.513895e+00
         3         3        1.288161e-01
         4         3        1.094436e+00
         5         3       -7.306775e-01
         6         3       -1.398372e-01
         7         3       -4.240883e-01
         8         3       -7.402953e-01
         9         3       -8.372913e-01
        10         3       -8.618708e-01
        11         3       -4.074563e-01
        12         3        1.296409e+00
        13         3       -2.453831e-01
        14         3        7.870009e-02
        15         3       -8.597815e-01
        16         3        9.923136e-01
        17         3       -1.189542e+00
        18         3        9.211983e-01
        19         3       -4.328165e-01
        20         3       -3.212382e-01
        21         3       -8.529409e-01
        22         3        9.440264e-01
        23         3       -2.552453e-01
        24         3        7.996488e-01
        25         3       -1.786866e-01
        26         3        9.793829e-01
        27         3        2.149228e+00
        28         3        9.177208e-01
        29         3       -3.184397e-01
        30         3        1.793353e+00
        31         3        4.669714e-01
        32         3       -1.864528e-01
        33         3        1.133047e+00
        34         3        2.825356e-01
        35         3       -7.526950e-02
        36         3       -1.001395e+00
        37         3       -1.176304e+00
        38         3       -2.046881e-01
        39         3       -5.308091e-01
        40         3        3.755268e-01
        41         3        8.154588e-01
        42         3       -9.540116e-01
        43         3       -5.758222e-01
        44         3        3.104025e+00
        45         3       -6.818185e-01
        46         3        6.953236e-01
        47         3       -2.111577e-01
        48         3        2.221065e+00
        49         3       -8.522383e-01
        50         3        1.329500e-01
        51         3        1.168026e+00
        52         3       -4.685271e-01
        53         3        6.630233e-01
        54         3       -8.923573e-01
        55         3        4.860394e-01
        56         3       -1.475706e+00
        57         3       -2.943168e+00
        58         3        6.814692e-01
        59         3       -2.573882e-01
        60         3       -5.914260e-01
        61         3       -7.497188e-01
        62         3        4.853333e-01
        63         3       -2.770997e-01
        64         3       -4.199399e-01
        65         3        1.983751e+00
        66         3       -4.485441e-02
        67         3       -1.105753e+00
        68         3       -2.175567e+00
        69         3       -6.888956e-01
        70         3       -3.155001e-01
        71         3       -2.043067e-01
        72         3        3.217217e-01
        73         3       -2.120137e+00
        74         3       -1.499920e+00
        75         3        2.210683e+00
        76         3        3.559934e-01
        77         3        2.923174e+00
        78         3        2.071818e+00
        79         3        6.637818e-01
        80         3        1.399924e+00
        81         3       -3.120676e-01
        82         3        3.612237e-01
        83         3        5.811678e-01
        84         3        1.142278e-01
        85         3       -4.323829e-01
        86         3        3.971817e-01
        87         3       -4.970599e-01
        88         3       -1.729195e+00
        89         3        4.505311e-01
        90         3        7.320140e-01
        91         3       -6.319459e-01
        92         3       -1.242873e+00
        93         3        1.078143e+00
        94         3       -6.478478e-01
        95         3       -2.033035e+00
        96         3        5.602984e-01
        97         3        1.004360e+00
        98         3       -1.019096e-01
        99         3        2.826756e+00
       100         3       -6.487748e-01
         1         4        8.008946e-01
         2         4       -5.616591e-01
         3         4        9.133850e-01
         4         4        1.378260e-01
         5         4       -3.620667e-01
         6         4       -1.395764e-01
         7         4        1.682258e-01
         8         4        1.969353e+00
         9         4        1.958813e-01
        10         4       -7.168611e-01
        11         4        1.081186e+00
        12         4        3.282640e-01
        13         4        1.285964e+00
        14         4        2.984046e-02
        15         4       -1.126838e+00
        16         4        1.032880e+00
        17         4       -9.793510e-01
        18         4        1.295170e+00
        19         4        9.180782e-01
        20         4        9.419067e-01
        21         4        6.469078e-01
        22         4       -8.437057e-01
        23         4        7.460621e-01
        24         4        6.381687e-01
        25         4        7.880880e-01
        26         4       -1.516780e-02
        27         4       -5.255923e-01
        28         4        1.350851e+00
        29         4        1.569568e+00
        30         4        1.441139e+00
        31         4       -8.122896e-01
        32         4        1.011601e+00
        33         4        1.110302e+00
        34         4       -1.099728e+00
        35         4        1.232805e+00
        36         4       -7.968510e-01
        37         4       -7.860349e-01
        38         4        5.683691e-01
        39         4        3.055699e-01
        40         4       -1.473857e+00
        41         4        2.404266e-01
        42         4        2.292539e-01
        43         4       -5.025338e-01
        44         4        1.264239e-01
        45         4       -1.724450e+00
        46         4        5.911293e-01
        47         4        4.792527e-01
        48         4       -1.479331e+00
        49         4        7.273481e-01
        50         4        4.531033e-01
        51         4        1.437783e+00
        52         4        2.384318e+00
        53         4        2.186879e-01
        54         4        2.279636e-01
        55         4        4.736628e-01
        56         4       -6.255338e-01
        57         4        8.498990e-01
        58         4        1.762638e+00
        59         4       -1.505476e+00
        60         4        1.209644e+00
        61         4        8.212165e-01
        62         4       -3.693244e-01
        63         4        6.250740e-01
        64         4       -2.873354e-01
        65         4       -1.226633e+00
        66         4       -7.488333e-01
        67         4        1.577836e-01
        68         4        1.807471e+00
        69         4        1.652504e+00
        70         4       -3.173763e-01
        71         4        6.336383e-02
        72         4        1.126124e+00
        73         4        1.707453e+00
        74         4        7.291003e-01
        75         4        4.446145e-01
        76         4        1.032266e+00
        77         4        9.462048e-01
        78         4        1.961732e-01
        79         4       -2.588596e-01
        80         4        2.528311e+00
        81         4        3.342964e-01
        82         4        5.250684e-01
        83         4        2.283433e-01
        84         4       -2.217927e+00
        85         4        1.759784e+00
        86         4        1.176333e+00
        87         4        7.477578e-01
        88         4       -6.017221e-01
        89         4       -6.823552e-01
        90         4        3.008172e-01
        91         4        6.608134e-01
        92         4       -1.636635e+00
        93         4        3.612542e-02
        94         4       -5.163578e-02
        95         4        5.514804e-01
        96         4       -8.339184e-01
        97         4        2.576341e-03
        98         4       -4.149260e-02
        99         4        3.333679e-01
       100         4        5.127350e-01
         1         5       -2.412982e-01
         2         5       -4.884614e-01
         3         5        1.978242e-01
         4         5       -2.385840e+00
         5         5        1.193834e+00
         6         5        1.217366e+00
         7         5       -6.652477e-01
         8         5        9.436066e-02
         9         5        1.484234e+00
        10         5       -1.028240e+00
        11         5        1.698831e+00
        12         5        5.286814e-01
        13         5        4.719874e-01
        14         5       -3.566959e-01
        15         5       -2.257941e-01
        16         5       -1.778424e+00
        17         5       -3.038539e-02
        18         5        2.229510e+00
        19         5       -6.287022e-01
        20         5       -1.856691e+00
        21         5       -1.550746e+00
        22         5       -4.590921e-01
        23         5       -1.225900e-01
        24         5       -2.794649e-01
        25         5        6.895385e-01
        26         5        9.873427e-01
        27         5        8.071972e-01
        28         5        4.629190e-01
        29         5       -1.060042e-01
        30         5       -1.731659e+00
        31         5       -4.590948e-01
        32         5        3.955593e-02
        33         5       -2.880068e-01
        34         5        1.196776e+00
        35         5        6.762047e-01
        36         5        2.625751e+00
        37         5       -2.611275e+00
        38         5       -1.098903e+00
        39         5       -3.994590e-02
        40         5        1.034386e+00
        41         5        7.510686e-02
        42         5       -9.916030e-01
        43         5        7.159910e-01
        44         5       -1.177606e+00
        45         5       -1.784734e-01
        46         5        4.625112e-01
        47         5        1.602418e+00
        48         5        9.861319e-01
        49         5        5.360235e-02
        50         5       -5.717106e-01
        51         5        2.494663e-01
        52         5       -2.312768e-01
        53         5       -4.534637e-03
        54         5       -9.703186e-01
        55         5       -1.907419e-01
        56         5       -5.477971e-01
        57         5        1.201446e-01
        58         5       -9.905776e-01
        59         5        6.330871e-01
        60         5        1.628216e+00
        61         5       -4.418689e-01
        62         5       -5.545266e-01
        63         5       -8.111489e-01
        64         5       -1.265932e+00
        65         5       -2.800040e-02
        66         5       -2.390796e-01
        67         5        6.454137e-02
        68         5       -4.462081e-01
        69         5       -1.007647e+00
        70         5        2.927834e-01
        71         5       -8.527083e-01
        72         5        1.162588e+00
        73         5        1.384521e-01
        74         5       -1.712742e+00
        75         5       -1.444409e+00
        76         5       -6.527907e-02
        77         5       -2.773820e-01
        78         5       -7.144448e-01
        79         5       -6.598863e-01
        80         5        1.168307e+00
        81         5        7.972231e-01
        82         5        5.710832e-01
        83         5       -7.296229e-01
        84         5        1.611077e-01
        85         5       -6.262895e-01
        86         5       -9.758193e-01
        87         5       -7.602111e-01
        88         5       -1.179383e-01
        89         5        1.671391e+00
        90         5       -6.856159e-01
        91         5       -1.058423e+00
        92         5        3.253581e-02
        93         5        2.473594e-01
        94         5        4.007904e-01
        95         5       -2.936919e-01
        96         5        2.443743e-02
        97         5       -3.030152e-01
        98         5        1.564676e-01
        99         5       -9.821090e-01
       100         5        2.368043e+00
;

param theta:=
    1       -1.435029e-01
    2       -4.981872e-01
    3        1.750312e+00
    4        1.523766e+00
    5       -5.561401e-01
;
param X_true:=
    1        4.230157e+00
    2        2.087812e+00
    3        8.211775e-01
    4        2.822652e+00
    5       -2.080953e+00
    6       -1.645498e+00
    7       -2.548313e-01
    8        7.242584e-01
    9       -3.101929e+00
   10       -2.179482e+00
   11       -3.774060e-01
   12        2.511945e+00
   13        1.659241e+00
   14        4.697806e-01
   15       -2.217932e+00
   16        4.205856e+00
   17       -3.145072e+00
   18        2.479098e+00
   19        4.015624e-01
   20        1.265735e+00
   21        1.465121e-01
   22       -5.813152e-02
   23       -1.638906e-01
   24        3.166191e+00
   25        3.003727e-02
   26        1.084904e+00
   27        1.725093e+00
   28        2.782171e+00
   29        1.634973e+00
   30        6.802648e+00
   31       -8.568301e-01
   32        1.338736e+00
   33        4.455714e+00
   34       -1.728628e+00
   35        7.752018e-01
   36       -4.287282e+00
   37       -6.366636e-01
   38        1.252119e+00
   39       -3.493764e-01
   40       -3.021238e+00
   41        1.987141e+00
   42       -1.096038e+00
   43       -2.380523e+00
   44        6.783810e+00
   45       -4.002230e+00
   46        1.654899e+00
   47       -1.219539e+00
   48        7.533912e-01
   49       -3.118438e-01
   50        1.083614e+00
   51        4.906389e+00
   52        2.913726e+00
   53        1.999463e+00
   54       -2.116242e-01
   55        1.511512e+00
   56       -3.367552e+00
   57       -4.050578e+00
   58        3.787553e+00
   59       -3.329741e+00
   60       -2.941652e-01
   61       -2.864937e-01
   62        1.198924e+00
   63        7.114292e-01
   64       -9.114620e-01
   65        1.729587e+00
   66       -1.461191e+00
   67       -1.717286e+00
   68       -1.712676e+00
   69        1.316708e+00
   70       -9.295467e-01
   71        6.025250e-02
   72        1.874877e+00
   73        9.979858e-02
   74       -3.890648e-01
   75        5.414756e+00
   76        1.471285e+00
   77        6.646716e+00
   78        3.906413e+00
   79        1.076540e+00
   80        6.153623e+00
   81        4.515411e-01
   82        6.135833e-01
   83        1.560036e+00
   84       -3.017955e+00
   85        2.382765e+00
   86        3.346163e+00
   87        4.399279e-01
   88       -3.490638e+00
   89       -1.523880e+00
   90        1.545053e+00
   91        1.084280e+00
   92       -5.284089e+00
   93        1.819890e+00
   94       -1.087682e+00
   95       -2.717336e+00
   96       -6.881582e-01
   97        2.809520e+00
   98        7.009494e-02
   99        5.420412e+00
  100       -1.349642e+00
;
param X:=
    1        4.230157e+00
    2        2.087812e+00
    3        1.753254e-01
    4        2.822652e+00
    5       -2.080953e+00
    6       -1.645498e+00
    7       -2.548313e-01
    8        7.242584e-01
    9       -3.101929e+00
   10       -2.179482e+00
   11       -3.774060e-01
   12        2.511945e+00
   13       -7.744402e-01
   14        4.697806e-01
   15       -2.217932e+00
   16       -6.821559e-01
   17       -3.145072e+00
   18        2.479098e+00
   19        4.015624e-01
   20       -1.779447e+00
   21        1.465121e-01
   22       -1.258265e+00
   23        3.033949e-01
   24        3.166191e+00
   25        3.003727e-02
   26        1.084904e+00
   27        1.725093e+00
   28       -2.854027e+00
   29        1.634973e+00
   30        6.802648e+00
   31       -8.568301e-01
   32        1.338736e+00
   33       -6.354706e-01
   34       -1.728628e+00
   35        1.224655e+00
   36       -4.287282e+00
   37       -6.366636e-01
   38        1.252119e+00
   39       -3.493764e-01
   40        9.095998e-01
   41        1.987141e+00
   42       -5.620405e-01
   43       -2.380523e+00
   44       -6.511323e-01
   45       -4.002230e+00
   46        1.654899e+00
   47       -1.219539e+00
   48        7.533912e-01
   49       -3.118438e-01
   50       -7.132549e-01
   51        4.906389e+00
   52        2.913726e+00
   53        1.999463e+00
   54       -2.116242e-01
   55        1.511512e+00
   56       -1.462875e+00
   57       -4.050578e+00
   58        1.001941e+00
   59       -3.329741e+00
   60       -2.941652e-01
   61       -2.864937e-01
   62        1.198924e+00
   63        7.114292e-01
   64       -9.114620e-01
   65        1.729587e+00
   66       -1.461191e+00
   67       -1.717286e+00
   68        1.936669e-01
   69        1.316708e+00
   70       -9.295467e-01
   71        6.025250e-02
   72        1.874877e+00
   73        9.979858e-02
   74       -3.890648e-01
   75        5.414756e+00
   76        1.471285e+00
   77        6.646716e+00
   78        3.906413e+00
   79        1.076540e+00
   80        6.153623e+00
   81        4.515411e-01
   82        6.135833e-01
   83        1.560036e+00
   84       -3.017955e+00
   85        2.531388e-01
   86        6.149306e-01
   87       -1.047712e+00
   88       -3.490638e+00
   89       -1.523880e+00
   90        1.545053e+00
   91        1.084280e+00
   92       -5.284089e+00
   93        1.819890e+00
   94       -1.087682e+00
   95       -2.717336e+00
   96       -1.111140e+00
   97        2.809520e+00
   98        7.009494e-02
   99        5.420412e+00
  100       -1.349642e+00
;
param outliervec:=
    1    0
    2    0
    3    1
    4    0
    5    0
    6    0
    7    0
    8    0
    9    0
   10    0
   11    0
   12    0
   13    1
   14    0
   15    0
   16    1
   17    0
   18    0
   19    0
   20    1
   21    0
   22    1
   23    1
   24    0
   25    0
   26    0
   27    0
   28    1
   29    0
   30    0
   31    0
   32    0
   33    1
   34    0
   35    1
   36    0
   37    0
   38    0
   39    0
   40    1
   41    0
   42    1
   43    0
   44    1
   45    0
   46    0
   47    0
   48    0
   49    0
   50    1
   51    0
   52    0
   53    0
   54    0
   55    0
   56    1
   57    0
   58    1
   59    0
   60    0
   61    0
   62    0
   63    0
   64    0
   65    0
   66    0
   67    0
   68    1
   69    0
   70    0
   71    0
   72    0
   73    0
   74    0
   75    0
   76    0
   77    0
   78    0
   79    0
   80    0
   81    0
   82    0
   83    0
   84    0
   85    1
   86    1
   87    1
   88    0
   89    0
   90    0
   91    0
   92    0
   93    0
   94    0
   95    0
   96    1
   97    0
   98    0
   99    0
  100    0
;